proyfinal/src/viki/013/andrea/andrea-localstore/experimentInOfficeAgust.take6/worker_8/1b28ce75-8733-4439-a1d4-039e726b2913.als.cnf.out
Reading from standard input... Use '--help' for help.
============================[ Problem Statistics ]=============================
|                                                                             |
|  Number of variables:         87638                                         |
|  Number of clauses:          161767                                         |
|  Parse time:                   0.03 s                                       |
|                                                                             |
============================[ Search Statistics ]==============================
| Conflicts |          ORIGINAL         |          LEARNT          | Progress |
|           |    Vars  Clauses Literals |    Limit  Clauses Lit/Cl |          |
===============================================================================
|       100 |   63027   107563   268913 |    39439      100      9 | 28.083 % |
|       250 |   49438    69979   176447 |    43383      233     21 | 43.588 % |
|       475 |   49438    69799   176012 |    47722      458     30 | 43.588 % |
|       812 |   49099    68568   173054 |    52494      784     33 | 43.975 % |
|      1318 |   48905    67722   171058 |    57743     1284     33 | 44.197 % |
|      2077 |   48893    67676   170938 |    63518     2042     42 | 44.210 % |
|      3216 |   48253    64900   164189 |    69869     2907     44 | 44.941 % |
|      4924 |   47754    63011   159713 |    76856     4592     44 | 45.510 % |
|      7486 |   47311    61281   155482 |    84542     7123     43 | 46.015 % |
===============================================================================
restarts              : 45
conflicts             : 10101          (8090 /sec)
decisions             : 33628          (0.00 % random) (26934 /sec)
propagations          : 14898811       (11933025 /sec)
conflict literals     : 399419         (43.65 % deleted)
Memory used           : 27.62 MB
CPU time              : 1.24854 s

UNSATISFIABLE
